\ENCODING=ISO-8859-1
\Problem name: IloCplex

Maximize
 obj1: z#335
Subject To
 c1:   q_0#0 <= 1
 c2:   q_1#1 <= 1
 c3:   q_2#2 <= 0
 c4:   q_3#3 <= 1
 c5:   q_4#4 <= 2
 c6:   q_5#5 <= 0
 c7:   q_6#6 <= 2
 c8:   q_7#7 <= 3
 c9:   q_8#8 <= 0
 c10:  q_9#9 <= 2
 c11:  q_10#10 <= 1
 c12:  q_5#5 + q_9#9 <= 6.71302
 c13:  q_6#6 + q_9#9 <= 5.95089
 c14:  q_2#2 + q_7#7 <= 5.17654
 c15:  q_9#9 + q_10#10 <= 4.82202
 c16:  q_4#4 + q_8#8 <= 5.93898
 c17:  q_5#5 + q_10#10 <= 4.84771
 c18:  q_1#1 + q_8#8 <= 6.80461
 c19:  q_4#4 + q_7#7 <= 5.31182
 c20:  q_1#1 + q_2#2 + q_3#3 <= 5.58568
 c21:  q_3#3 + q_10#10 <= 4.74823
 c22:  x_0_9#11 >= 1
 c23:  - 1000 hap_1_0_0#12 + ap_0_0#13 <= 0
 c24:  x_0_9#11 + 2 hap_1_0_0#12 <= 3
 c25:  - x_0_3#14 - x_0_2#15 >= -1
 c26:  - 1000 han_2_0_0#16 + an_0_0#17 <= 0
 c27:  - x_0_3#14 - x_0_2#15 + 2 han_2_0_0#16 <= 1
 c28:  x_1_4#18 + x_1_3#19 + x_1_0#20 >= 1
 c29:  - 1000 hap_1_0_1#21 + ap_0_1#22 <= 0
 c30:  x_1_4#18 + x_1_3#19 + x_1_0#20 + 2 hap_1_0_1#21 <= 3
 c31:  - x_1_10#23 >= -1
 c32:  - 1000 han_2_0_1#24 + an_0_1#25 <= 0
 c33:  - x_1_10#23 + 2 han_2_0_1#24 <= 1
 c34:  x_2_7#26 + x_2_5#27 + x_2_1#28 >= 1
 c35:  - 1000 hap_1_0_2#29 + ap_0_2#30 <= 0
 c36:  x_2_7#26 + x_2_5#27 + x_2_1#28 + 2 hap_1_0_2#29 <= 3
 c37:  - x_2_1#28 - x_2_0#31 >= -1
 c38:  - 1000 han_2_0_2#32 + an_0_2#33 <= 0
 c39:  - x_2_1#28 - x_2_0#31 + 2 han_2_0_2#32 <= 1
 c40:  x_0_9#34 >= 1
 c41:  - 1000 hap_1_1_0#35 + ap_1_0#36 <= 0
 c42:  x_0_9#34 + 2 hap_1_1_0#35 <= 3
 c43:  - x_0_3#37 - x_0_2#38 >= -1
 c44:  - 1000 han_2_1_0#39 + an_1_0#40 <= 0
 c45:  - x_0_3#37 - x_0_2#38 + 2 han_2_1_0#39 <= 1
 c46:  x_1_4#41 + x_1_3#42 + x_1_0#43 >= 1
 c47:  - 1000 hap_1_1_1#44 + ap_1_1#45 <= 0
 c48:  x_1_4#41 + x_1_3#42 + x_1_0#43 + 2 hap_1_1_1#44 <= 3
 c49:  - x_1_10#46 >= -1
 c50:  - 1000 han_2_1_1#47 + an_1_1#48 <= 0
 c51:  - x_1_10#46 + 2 han_2_1_1#47 <= 1
 c52:  x_2_7#49 + x_2_5#50 + x_2_1#51 >= 1
 c53:  - 1000 hap_1_1_2#52 + ap_1_2#53 <= 0
 c54:  x_2_7#49 + x_2_5#50 + x_2_1#51 + 2 hap_1_1_2#52 <= 3
 c55:  - x_2_1#51 - x_2_0#54 >= -1
 c56:  - 1000 han_2_1_2#55 + an_1_2#56 <= 0
 c57:  - x_2_1#51 - x_2_0#54 + 2 han_2_1_2#55 <= 1
 c58:  x_0_9#57 >= 1
 c59:  - 1000 hap_1_2_0#58 + ap_2_0#59 <= 0
 c60:  x_0_9#57 + 2 hap_1_2_0#58 <= 3
 c61:  - x_0_3#60 - x_0_2#61 >= -1
 c62:  - 1000 han_2_2_0#62 + an_2_0#63 <= 0
 c63:  - x_0_3#60 - x_0_2#61 + 2 han_2_2_0#62 <= 1
 c64:  x_1_4#64 + x_1_3#65 + x_1_0#66 >= 1
 c65:  - 1000 hap_1_2_1#67 + ap_2_1#68 <= 0
 c66:  x_1_4#64 + x_1_3#65 + x_1_0#66 + 2 hap_1_2_1#67 <= 3
 c67:  - x_1_10#69 >= -1
 c68:  - 1000 han_2_2_1#70 + an_2_1#71 <= 0
 c69:  - x_1_10#69 + 2 han_2_2_1#70 <= 1
 c70:  x_2_7#72 + x_2_5#73 + x_2_1#74 >= 1
 c71:  - 1000 hap_1_2_2#75 + ap_2_2#76 <= 0
 c72:  x_2_7#72 + x_2_5#73 + x_2_1#74 + 2 hap_1_2_2#75 <= 3
 c73:  - x_2_1#74 - x_2_0#77 >= -1
 c74:  - 1000 han_2_2_2#78 + an_2_2#79 <= 0
 c75:  - x_2_1#74 - x_2_0#77 + 2 han_2_2_2#78 <= 1
 c76:  x_0_6#80 - x_0_1#81 - x_0_0#82 >= 0
 c77:  - 1000 hb_0_0_0#83 + b_0_0_0#84 <= 0
 c78:  x_0_6#80 - x_0_1#81 - x_0_0#82 + 2 hb_0_0_0#83 <= 2
 c79:  x_0_2#15 - x_0_5#85 - x_0_4#86 >= 0
 c80:  - 1000 hb_0_0_2#87 + b_0_0_2#88 <= 0
 c81:  x_0_2#15 - x_0_5#85 - x_0_4#86 + 2 hb_0_0_2#87 <= 2
 c82:  x_0_3#14 - x_0_6#80 + x_0_0#82 + x_0_4#86 - x_0_7#89 >= 0
 c83:  - 1000 hb_0_0_3#90 + b_0_0_3#91 <= 0
 c84:  x_0_3#14 - x_0_6#80 + x_0_0#82 + x_0_4#86 - x_0_7#89 + 2 hb_0_0_3#90
       <= 2
 c85:  - x_0_9#11 + x_0_10#92 - x_0_8#93 >= 0
 c86:  - 1000 hb_0_0_4#94 + b_0_0_4#95 <= 0
 c87:  - x_0_9#11 + x_0_10#92 - x_0_8#93 + 2 hb_0_0_4#94 <= 2
 c88:  x_0_1#81 + x_0_5#85 + x_0_7#89 - x_0_10#92 >= 0
 c89:  - 1000 hb_0_0_6#96 + b_0_0_6#97 <= 0
 c90:  x_0_1#81 + x_0_5#85 + x_0_7#89 - x_0_10#92 + 2 hb_0_0_6#96 <= 2
 c91:  - x_1_0#20 + x_1_6#98 - x_1_1#99 >= 0
 c92:  - 1000 hb_0_1_0#100 + b_0_1_0#101 <= 0
 c93:  - x_1_0#20 + x_1_6#98 - x_1_1#99 + 2 hb_0_1_0#100 <= 2
 c94:  - x_1_3#19 + x_1_8#102 - x_1_2#103 >= 0
 c95:  - 1000 hb_0_1_1#104 + b_0_1_1#105 <= 0
 c96:  - x_1_3#19 + x_1_8#102 - x_1_2#103 + 2 hb_0_1_1#104 <= 2
 c97:  - x_1_4#18 + x_1_2#103 - x_1_5#106 >= 0
 c98:  - 1000 hb_0_1_2#107 + b_0_1_2#108 <= 0
 c99:  - x_1_4#18 + x_1_2#103 - x_1_5#106 + 2 hb_0_1_2#107 <= 2
 c100: x_1_10#23 - x_1_8#102 - x_1_9#109 >= 0
 c101: - 1000 hb_0_1_4#110 + b_0_1_4#111 <= 0
 c102: x_1_10#23 - x_1_8#102 - x_1_9#109 + 2 hb_0_1_4#110 <= 2
 c103: x_1_9#109 >= 0
 c104: - 1000 hb_0_1_5#112 + b_0_1_5#113 <= 0
 c105: x_1_9#109 + 2 hb_0_1_5#112 <= 2
 c106: x_2_8#114 - x_2_3#115 - x_2_2#116 >= 0
 c107: - 1000 hb_0_2_1#117 + b_0_2_1#118 <= 0
 c108: x_2_8#114 - x_2_3#115 - x_2_2#116 + 2 hb_0_2_1#117 <= 2
 c109: - x_2_5#27 + x_2_2#116 - x_2_4#119 >= 0
 c110: - 1000 hb_0_2_2#120 + b_0_2_2#121 <= 0
 c111: - x_2_5#27 + x_2_2#116 - x_2_4#119 + 2 hb_0_2_2#120 <= 2
 c112: - x_2_7#26 + x_2_0#31 + x_2_3#115 + x_2_4#119 - x_2_6#122 >= 0
 c113: - 1000 hb_0_2_3#123 + b_0_2_3#124 <= 0
 c114: - x_2_7#26 + x_2_0#31 + x_2_3#115 + x_2_4#119 - x_2_6#122
       + 2 hb_0_2_3#123 <= 2
 c115: - x_2_8#114 + x_2_10#125 - x_2_9#126 >= 0
 c116: - 1000 hb_0_2_4#127 + b_0_2_4#128 <= 0
 c117: - x_2_8#114 + x_2_10#125 - x_2_9#126 + 2 hb_0_2_4#127 <= 2
 c118: x_2_9#126 >= 0
 c119: - 1000 hb_0_2_5#129 + b_0_2_5#130 <= 0
 c120: x_2_9#126 + 2 hb_0_2_5#129 <= 2
 c121: x_0_6#131 - x_0_1#132 - x_0_0#133 >= 0
 c122: - 1000 hb_1_0_0#134 + b_1_0_0#135 <= 0
 c123: x_0_6#131 - x_0_1#132 - x_0_0#133 + 2 hb_1_0_0#134 <= 2
 c124: x_0_2#38 - x_0_5#136 - x_0_4#137 >= 0
 c125: - 1000 hb_1_0_2#138 + b_1_0_2#139 <= 0
 c126: x_0_2#38 - x_0_5#136 - x_0_4#137 + 2 hb_1_0_2#138 <= 2
 c127: x_0_3#37 - x_0_6#131 + x_0_0#133 + x_0_4#137 - x_0_7#140 >= 0
 c128: - 1000 hb_1_0_3#141 + b_1_0_3#142 <= 0
 c129: x_0_3#37 - x_0_6#131 + x_0_0#133 + x_0_4#137 - x_0_7#140
       + 2 hb_1_0_3#141 <= 2
 c130: - x_0_9#34 + x_0_10#143 - x_0_8#144 >= 0
 c131: - 1000 hb_1_0_4#145 + b_1_0_4#146 <= 0
 c132: - x_0_9#34 + x_0_10#143 - x_0_8#144 + 2 hb_1_0_4#145 <= 2
 c133: x_0_1#132 + x_0_5#136 + x_0_7#140 - x_0_10#143 >= 0
 c134: - 1000 hb_1_0_6#147 + b_1_0_6#148 <= 0
 c135: x_0_1#132 + x_0_5#136 + x_0_7#140 - x_0_10#143 + 2 hb_1_0_6#147 <= 2
 c136: - x_1_0#43 + x_1_6#149 - x_1_1#150 >= 0
 c137: - 1000 hb_1_1_0#151 + b_1_1_0#152 <= 0
 c138: - x_1_0#43 + x_1_6#149 - x_1_1#150 + 2 hb_1_1_0#151 <= 2
 c139: - x_1_3#42 + x_1_8#153 - x_1_2#154 >= 0
 c140: - 1000 hb_1_1_1#155 + b_1_1_1#156 <= 0
 c141: - x_1_3#42 + x_1_8#153 - x_1_2#154 + 2 hb_1_1_1#155 <= 2
 c142: - x_1_4#41 + x_1_2#154 - x_1_5#157 >= 0
 c143: - 1000 hb_1_1_2#158 + b_1_1_2#159 <= 0
 c144: - x_1_4#41 + x_1_2#154 - x_1_5#157 + 2 hb_1_1_2#158 <= 2
 c145: x_1_10#46 - x_1_8#153 - x_1_9#160 >= 0
 c146: - 1000 hb_1_1_4#161 + b_1_1_4#162 <= 0
 c147: x_1_10#46 - x_1_8#153 - x_1_9#160 + 2 hb_1_1_4#161 <= 2
 c148: x_1_9#160 >= 0
 c149: - 1000 hb_1_1_5#163 + b_1_1_5#164 <= 0
 c150: x_1_9#160 + 2 hb_1_1_5#163 <= 2
 c151: x_2_8#165 - x_2_3#166 - x_2_2#167 >= 0
 c152: - 1000 hb_1_2_1#168 + b_1_2_1#169 <= 0
 c153: x_2_8#165 - x_2_3#166 - x_2_2#167 + 2 hb_1_2_1#168 <= 2
 c154: - x_2_5#50 + x_2_2#167 - x_2_4#170 >= 0
 c155: - 1000 hb_1_2_2#171 + b_1_2_2#172 <= 0
 c156: - x_2_5#50 + x_2_2#167 - x_2_4#170 + 2 hb_1_2_2#171 <= 2
 c157: - x_2_7#49 + x_2_0#54 + x_2_3#166 + x_2_4#170 - x_2_6#173 >= 0
 c158: - 1000 hb_1_2_3#174 + b_1_2_3#175 <= 0
 c159: - x_2_7#49 + x_2_0#54 + x_2_3#166 + x_2_4#170 - x_2_6#173
       + 2 hb_1_2_3#174 <= 2
 c160: - x_2_8#165 + x_2_10#176 - x_2_9#177 >= 0
 c161: - 1000 hb_1_2_4#178 + b_1_2_4#179 <= 0
 c162: - x_2_8#165 + x_2_10#176 - x_2_9#177 + 2 hb_1_2_4#178 <= 2
 c163: x_2_9#177 >= 0
 c164: - 1000 hb_1_2_5#180 + b_1_2_5#181 <= 0
 c165: x_2_9#177 + 2 hb_1_2_5#180 <= 2
 c166: x_0_6#182 - x_0_1#183 - x_0_0#184 >= 0
 c167: - 1000 hb_2_0_0#185 + b_2_0_0#186 <= 0
 c168: x_0_6#182 - x_0_1#183 - x_0_0#184 + 2 hb_2_0_0#185 <= 2
 c169: x_0_2#61 - x_0_5#187 - x_0_4#188 >= 0
 c170: - 1000 hb_2_0_2#189 + b_2_0_2#190 <= 0
 c171: x_0_2#61 - x_0_5#187 - x_0_4#188 + 2 hb_2_0_2#189 <= 2
 c172: x_0_3#60 - x_0_6#182 + x_0_0#184 + x_0_4#188 - x_0_7#191 >= 0
 c173: - 1000 hb_2_0_3#192 + b_2_0_3#193 <= 0
 c174: x_0_3#60 - x_0_6#182 + x_0_0#184 + x_0_4#188 - x_0_7#191
       + 2 hb_2_0_3#192 <= 2
 c175: - x_0_9#57 + x_0_10#194 - x_0_8#195 >= 0
 c176: - 1000 hb_2_0_4#196 + b_2_0_4#197 <= 0
 c177: - x_0_9#57 + x_0_10#194 - x_0_8#195 + 2 hb_2_0_4#196 <= 2
 c178: x_0_1#183 + x_0_5#187 + x_0_7#191 - x_0_10#194 >= 0
 c179: - 1000 hb_2_0_6#198 + b_2_0_6#199 <= 0
 c180: x_0_1#183 + x_0_5#187 + x_0_7#191 - x_0_10#194 + 2 hb_2_0_6#198 <= 2
 c181: - x_1_0#66 + x_1_6#200 - x_1_1#201 >= 0
 c182: - 1000 hb_2_1_0#202 + b_2_1_0#203 <= 0
 c183: - x_1_0#66 + x_1_6#200 - x_1_1#201 + 2 hb_2_1_0#202 <= 2
 c184: - x_1_3#65 + x_1_8#204 - x_1_2#205 >= 0
 c185: - 1000 hb_2_1_1#206 + b_2_1_1#207 <= 0
 c186: - x_1_3#65 + x_1_8#204 - x_1_2#205 + 2 hb_2_1_1#206 <= 2
 c187: - x_1_4#64 + x_1_2#205 - x_1_5#208 >= 0
 c188: - 1000 hb_2_1_2#209 + b_2_1_2#210 <= 0
 c189: - x_1_4#64 + x_1_2#205 - x_1_5#208 + 2 hb_2_1_2#209 <= 2
 c190: x_1_10#69 - x_1_8#204 - x_1_9#211 >= 0
 c191: - 1000 hb_2_1_4#212 + b_2_1_4#213 <= 0
 c192: x_1_10#69 - x_1_8#204 - x_1_9#211 + 2 hb_2_1_4#212 <= 2
 c193: x_1_9#211 >= 0
 c194: - 1000 hb_2_1_5#214 + b_2_1_5#215 <= 0
 c195: x_1_9#211 + 2 hb_2_1_5#214 <= 2
 c196: x_2_8#216 - x_2_3#217 - x_2_2#218 >= 0
 c197: - 1000 hb_2_2_1#219 + b_2_2_1#220 <= 0
 c198: x_2_8#216 - x_2_3#217 - x_2_2#218 + 2 hb_2_2_1#219 <= 2
 c199: - x_2_5#73 + x_2_2#218 - x_2_4#221 >= 0
 c200: - 1000 hb_2_2_2#222 + b_2_2_2#223 <= 0
 c201: - x_2_5#73 + x_2_2#218 - x_2_4#221 + 2 hb_2_2_2#222 <= 2
 c202: - x_2_7#72 + x_2_0#77 + x_2_3#217 + x_2_4#221 - x_2_6#224 >= 0
 c203: - 1000 hb_2_2_3#225 + b_2_2_3#226 <= 0
 c204: - x_2_7#72 + x_2_0#77 + x_2_3#217 + x_2_4#221 - x_2_6#224
       + 2 hb_2_2_3#225 <= 2
 c205: - x_2_8#216 + x_2_10#227 - x_2_9#228 >= 0
 c206: - 1000 hb_2_2_4#229 + b_2_2_4#230 <= 0
 c207: - x_2_8#216 + x_2_10#227 - x_2_9#228 + 2 hb_2_2_4#229 <= 2
 c208: x_2_9#228 >= 0
 c209: - 1000 hb_2_2_5#231 + b_2_2_5#232 <= 0
 c210: x_2_9#228 + 2 hb_2_2_5#231 <= 2
 c211: - q_0#0 - b_0_0_0#84 + b_0_0_3#91 <= 0
 c212: x_0_0#82 - 2 hdu_0_0_0#233 <= 0
 c213: q_0#0 + b_0_0_0#84 - b_0_0_3#91 + 1000 hdu_0_0_0#233 <= 1000
 c214: - q_1#1 - b_0_0_0#84 + b_0_0_6#97 <= 0
 c215: x_0_1#81 - 2 hdu_0_0_1#234 <= 0
 c216: q_1#1 + b_0_0_0#84 - b_0_0_6#97 + 1000 hdu_0_0_1#234 <= 1000
 c217: - q_2#2 - an_0_0#17 + b_0_0_2#88 <= 0
 c218: x_0_2#15 - 2 hdu_0_0_2#235 <= 0
 c219: q_2#2 + an_0_0#17 - b_0_0_2#88 + 1000 hdu_0_0_2#235 <= 1000
 c220: - q_3#3 - an_0_0#17 + b_0_0_3#91 <= 0
 c221: x_0_3#14 - 2 hdu_0_0_3#236 <= 0
 c222: q_3#3 + an_0_0#17 - b_0_0_3#91 + 1000 hdu_0_0_3#236 <= 1000
 c223: - q_4#4 - b_0_0_2#88 + b_0_0_3#91 <= 0
 c224: x_0_4#86 - 2 hdu_0_0_4#237 <= 0
 c225: q_4#4 + b_0_0_2#88 - b_0_0_3#91 + 1000 hdu_0_0_4#237 <= 1000
 c226: - q_5#5 - b_0_0_2#88 + b_0_0_6#97 <= 0
 c227: x_0_5#85 - 2 hdu_0_0_5#238 <= 0
 c228: q_5#5 + b_0_0_2#88 - b_0_0_6#97 + 1000 hdu_0_0_5#238 <= 1000
 c229: - q_6#6 + b_0_0_0#84 - b_0_0_3#91 <= 0
 c230: x_0_6#80 - 2 hdu_0_0_6#239 <= 0
 c231: q_6#6 - b_0_0_0#84 + b_0_0_3#91 + 1000 hdu_0_0_6#239 <= 1000
 c232: - q_7#7 - b_0_0_3#91 + b_0_0_6#97 <= 0
 c233: x_0_7#89 - 2 hdu_0_0_7#240 <= 0
 c234: q_7#7 + b_0_0_3#91 - b_0_0_6#97 + 1000 hdu_0_0_7#240 <= 1000
 c235: - q_8#8 - b_0_0_4#95 <= 0
 c236: x_0_8#93 - 2 hdu_0_0_8#241 <= 0
 c237: q_8#8 + b_0_0_4#95 + 1000 hdu_0_0_8#241 <= 1000
 c238: - q_9#9 + ap_0_0#13 - b_0_0_4#95 <= 0
 c239: x_0_9#11 - 2 hdu_0_0_9#242 <= 0
 c240: q_9#9 - ap_0_0#13 + b_0_0_4#95 + 1000 hdu_0_0_9#242 <= 1000
 c241: - q_10#10 + b_0_0_4#95 - b_0_0_6#97 <= 0
 c242: x_0_10#92 - 2 hdu_0_0_10#243 <= 0
 c243: q_10#10 - b_0_0_4#95 + b_0_0_6#97 + 1000 hdu_0_0_10#243 <= 1000
 c244: - q_0#0 + ap_0_1#22 - b_0_1_0#101 <= 0
 c245: x_1_0#20 - 2 hdu_0_1_0#244 <= 0
 c246: q_0#0 - ap_0_1#22 + b_0_1_0#101 + 1000 hdu_0_1_0#244 <= 1000
 c247: - q_1#1 - b_0_1_0#101 <= 0
 c248: x_1_1#99 - 2 hdu_0_1_1#245 <= 0
 c249: q_1#1 + b_0_1_0#101 + 1000 hdu_0_1_1#245 <= 1000
 c250: - q_2#2 - b_0_1_1#105 + b_0_1_2#108 <= 0
 c251: x_1_2#103 - 2 hdu_0_1_2#246 <= 0
 c252: q_2#2 + b_0_1_1#105 - b_0_1_2#108 + 1000 hdu_0_1_2#246 <= 1000
 c253: - q_3#3 + ap_0_1#22 - b_0_1_1#105 <= 0
 c254: x_1_3#19 - 2 hdu_0_1_3#247 <= 0
 c255: q_3#3 - ap_0_1#22 + b_0_1_1#105 + 1000 hdu_0_1_3#247 <= 1000
 c256: - q_4#4 + ap_0_1#22 - b_0_1_2#108 <= 0
 c257: x_1_4#18 - 2 hdu_0_1_4#248 <= 0
 c258: q_4#4 - ap_0_1#22 + b_0_1_2#108 + 1000 hdu_0_1_4#248 <= 1000
 c259: - q_5#5 - b_0_1_2#108 <= 0
 c260: x_1_5#106 - 2 hdu_0_1_5#249 <= 0
 c261: q_5#5 + b_0_1_2#108 + 1000 hdu_0_1_5#249 <= 1000
 c262: - q_6#6 + b_0_1_0#101 <= 0
 c263: x_1_6#98 - 2 hdu_0_1_6#250 <= 0
 c264: q_6#6 - b_0_1_0#101 + 1000 hdu_0_1_6#250 <= 1000
 c265: - q_7#7 <= 0
 c266: - 2 hdu_0_1_7#251 + x_1_7#252 <= 0
 c267: q_7#7 + 1000 hdu_0_1_7#251 <= 1000
 c268: - q_8#8 + b_0_1_1#105 - b_0_1_4#111 <= 0
 c269: x_1_8#102 - 2 hdu_0_1_8#253 <= 0
 c270: q_8#8 - b_0_1_1#105 + b_0_1_4#111 + 1000 hdu_0_1_8#253 <= 1000
 c271: - q_9#9 - b_0_1_4#111 + b_0_1_5#113 <= 0
 c272: x_1_9#109 - 2 hdu_0_1_9#254 <= 0
 c273: q_9#9 + b_0_1_4#111 - b_0_1_5#113 + 1000 hdu_0_1_9#254 <= 1000
 c274: - q_10#10 - an_0_1#25 + b_0_1_4#111 <= 0
 c275: x_1_10#23 - 2 hdu_0_1_10#255 <= 0
 c276: q_10#10 + an_0_1#25 - b_0_1_4#111 + 1000 hdu_0_1_10#255 <= 1000
 c277: - q_0#0 - an_0_2#33 + b_0_2_3#124 <= 0
 c278: x_2_0#31 - 2 hdu_0_2_0#256 <= 0
 c279: q_0#0 + an_0_2#33 - b_0_2_3#124 + 1000 hdu_0_2_0#256 <= 1000
 c280: - q_1#1 + ap_0_2#30 - an_0_2#33 <= 0
 c281: x_2_1#28 - 2 hdu_0_2_1#257 <= 0
 c282: q_1#1 - ap_0_2#30 + an_0_2#33 + 1000 hdu_0_2_1#257 <= 1000
 c283: - q_2#2 - b_0_2_1#118 + b_0_2_2#121 <= 0
 c284: x_2_2#116 - 2 hdu_0_2_2#258 <= 0
 c285: q_2#2 + b_0_2_1#118 - b_0_2_2#121 + 1000 hdu_0_2_2#258 <= 1000
 c286: - q_3#3 - b_0_2_1#118 + b_0_2_3#124 <= 0
 c287: x_2_3#115 - 2 hdu_0_2_3#259 <= 0
 c288: q_3#3 + b_0_2_1#118 - b_0_2_3#124 + 1000 hdu_0_2_3#259 <= 1000
 c289: - q_4#4 - b_0_2_2#121 + b_0_2_3#124 <= 0
 c290: x_2_4#119 - 2 hdu_0_2_4#260 <= 0
 c291: q_4#4 + b_0_2_2#121 - b_0_2_3#124 + 1000 hdu_0_2_4#260 <= 1000
 c292: - q_5#5 + ap_0_2#30 - b_0_2_2#121 <= 0
 c293: x_2_5#27 - 2 hdu_0_2_5#261 <= 0
 c294: q_5#5 - ap_0_2#30 + b_0_2_2#121 + 1000 hdu_0_2_5#261 <= 1000
 c295: - q_6#6 - b_0_2_3#124 <= 0
 c296: x_2_6#122 - 2 hdu_0_2_6#262 <= 0
 c297: q_6#6 + b_0_2_3#124 + 1000 hdu_0_2_6#262 <= 1000
 c298: - q_7#7 + ap_0_2#30 - b_0_2_3#124 <= 0
 c299: x_2_7#26 - 2 hdu_0_2_7#263 <= 0
 c300: q_7#7 - ap_0_2#30 + b_0_2_3#124 + 1000 hdu_0_2_7#263 <= 1000
 c301: - q_8#8 + b_0_2_1#118 - b_0_2_4#128 <= 0
 c302: x_2_8#114 - 2 hdu_0_2_8#264 <= 0
 c303: q_8#8 - b_0_2_1#118 + b_0_2_4#128 + 1000 hdu_0_2_8#264 <= 1000
 c304: - q_9#9 - b_0_2_4#128 + b_0_2_5#130 <= 1
 c305: x_2_9#126 - 2 hdu_0_2_9#265 <= 0
 c306: q_9#9 + b_0_2_4#128 - b_0_2_5#130 + 1000 hdu_0_2_9#265 <= 999
 c307: - q_10#10 + b_0_2_4#128 <= 0
 c308: x_2_10#125 - 2 hdu_0_2_10#266 <= 0
 c309: q_10#10 - b_0_2_4#128 + 1000 hdu_0_2_10#266 <= 1000
 c310: - q_0#0 - b_1_0_0#135 + b_1_0_3#142 <= 0
 c311: x_0_0#133 - 2 hdu_1_0_0#267 <= 0
 c312: q_0#0 + b_1_0_0#135 - b_1_0_3#142 + 1000 hdu_1_0_0#267 <= 1000
 c313: - q_1#1 - b_1_0_0#135 + b_1_0_6#148 <= 0
 c314: x_0_1#132 - 2 hdu_1_0_1#268 <= 0
 c315: q_1#1 + b_1_0_0#135 - b_1_0_6#148 + 1000 hdu_1_0_1#268 <= 1000
 c316: - q_2#2 - an_1_0#40 + b_1_0_2#139 <= 0
 c317: x_0_2#38 - 2 hdu_1_0_2#269 <= 0
 c318: q_2#2 + an_1_0#40 - b_1_0_2#139 + 1000 hdu_1_0_2#269 <= 1000
 c319: - q_3#3 - an_1_0#40 + b_1_0_3#142 <= 0
 c320: x_0_3#37 - 2 hdu_1_0_3#270 <= 0
 c321: q_3#3 + an_1_0#40 - b_1_0_3#142 + 1000 hdu_1_0_3#270 <= 1000
 c322: - q_4#4 - b_1_0_2#139 + b_1_0_3#142 <= 0
 c323: x_0_4#137 - 2 hdu_1_0_4#271 <= 0
 c324: q_4#4 + b_1_0_2#139 - b_1_0_3#142 + 1000 hdu_1_0_4#271 <= 1000
 c325: - q_5#5 - b_1_0_2#139 + b_1_0_6#148 <= 0
 c326: x_0_5#136 - 2 hdu_1_0_5#272 <= 0
 c327: q_5#5 + b_1_0_2#139 - b_1_0_6#148 + 1000 hdu_1_0_5#272 <= 1000
 c328: - q_6#6 + b_1_0_0#135 - b_1_0_3#142 <= 0
 c329: x_0_6#131 - 2 hdu_1_0_6#273 <= 0
 c330: q_6#6 - b_1_0_0#135 + b_1_0_3#142 + 1000 hdu_1_0_6#273 <= 1000
 c331: - q_7#7 - b_1_0_3#142 + b_1_0_6#148 <= 0
 c332: x_0_7#140 - 2 hdu_1_0_7#274 <= 0
 c333: q_7#7 + b_1_0_3#142 - b_1_0_6#148 + 1000 hdu_1_0_7#274 <= 1000
 c334: - q_8#8 - b_1_0_4#146 <= 0
 c335: x_0_8#144 - 2 hdu_1_0_8#275 <= 0
 c336: q_8#8 + b_1_0_4#146 + 1000 hdu_1_0_8#275 <= 1000
 c337: - q_9#9 + ap_1_0#36 - b_1_0_4#146 <= 0
 c338: x_0_9#34 - 2 hdu_1_0_9#276 <= 0
 c339: q_9#9 - ap_1_0#36 + b_1_0_4#146 + 1000 hdu_1_0_9#276 <= 1000
 c340: - q_10#10 + b_1_0_4#146 - b_1_0_6#148 <= 0
 c341: x_0_10#143 - 2 hdu_1_0_10#277 <= 0
 c342: q_10#10 - b_1_0_4#146 + b_1_0_6#148 + 1000 hdu_1_0_10#277 <= 1000
 c343: - q_0#0 + ap_1_1#45 - b_1_1_0#152 <= 0
 c344: x_1_0#43 - 2 hdu_1_1_0#278 <= 0
 c345: q_0#0 - ap_1_1#45 + b_1_1_0#152 + 1000 hdu_1_1_0#278 <= 1000
 c346: - q_1#1 - b_1_1_0#152 <= 0
 c347: x_1_1#150 - 2 hdu_1_1_1#279 <= 0
 c348: q_1#1 + b_1_1_0#152 + 1000 hdu_1_1_1#279 <= 1000
 c349: - q_2#2 - b_1_1_1#156 + b_1_1_2#159 <= 0
 c350: x_1_2#154 - 2 hdu_1_1_2#280 <= 0
 c351: q_2#2 + b_1_1_1#156 - b_1_1_2#159 + 1000 hdu_1_1_2#280 <= 1000
 c352: - q_3#3 + ap_1_1#45 - b_1_1_1#156 <= 0
 c353: x_1_3#42 - 2 hdu_1_1_3#281 <= 0
 c354: q_3#3 - ap_1_1#45 + b_1_1_1#156 + 1000 hdu_1_1_3#281 <= 1000
 c355: - q_4#4 + ap_1_1#45 - b_1_1_2#159 <= 0
 c356: x_1_4#41 - 2 hdu_1_1_4#282 <= 0
 c357: q_4#4 - ap_1_1#45 + b_1_1_2#159 + 1000 hdu_1_1_4#282 <= 1000
 c358: - q_5#5 - b_1_1_2#159 <= 0
 c359: x_1_5#157 - 2 hdu_1_1_5#283 <= 0
 c360: q_5#5 + b_1_1_2#159 + 1000 hdu_1_1_5#283 <= 1000
 c361: - q_6#6 + b_1_1_0#152 <= 0
 c362: x_1_6#149 - 2 hdu_1_1_6#284 <= 0
 c363: q_6#6 - b_1_1_0#152 + 1000 hdu_1_1_6#284 <= 1000
 c364: - q_7#7 <= 0
 c365: - 2 hdu_1_1_7#285 + x_1_7#286 <= 0
 c366: q_7#7 + 1000 hdu_1_1_7#285 <= 1000
 c367: - q_8#8 + b_1_1_1#156 - b_1_1_4#162 <= 0
 c368: x_1_8#153 - 2 hdu_1_1_8#287 <= 0
 c369: q_8#8 - b_1_1_1#156 + b_1_1_4#162 + 1000 hdu_1_1_8#287 <= 1000
 c370: - q_9#9 - b_1_1_4#162 + b_1_1_5#164 <= 0
 c371: x_1_9#160 - 2 hdu_1_1_9#288 <= 0
 c372: q_9#9 + b_1_1_4#162 - b_1_1_5#164 + 1000 hdu_1_1_9#288 <= 1000
 c373: - q_10#10 - an_1_1#48 + b_1_1_4#162 <= 0
 c374: x_1_10#46 - 2 hdu_1_1_10#289 <= 0
 c375: q_10#10 + an_1_1#48 - b_1_1_4#162 + 1000 hdu_1_1_10#289 <= 1000
 c376: - q_0#0 - an_1_2#56 + b_1_2_3#175 <= 0
 c377: x_2_0#54 - 2 hdu_1_2_0#290 <= 0
 c378: q_0#0 + an_1_2#56 - b_1_2_3#175 + 1000 hdu_1_2_0#290 <= 1000
 c379: - q_1#1 + ap_1_2#53 - an_1_2#56 <= 0
 c380: x_2_1#51 - 2 hdu_1_2_1#291 <= 0
 c381: q_1#1 - ap_1_2#53 + an_1_2#56 + 1000 hdu_1_2_1#291 <= 1000
 c382: - q_2#2 - b_1_2_1#169 + b_1_2_2#172 <= 0
 c383: x_2_2#167 - 2 hdu_1_2_2#292 <= 0
 c384: q_2#2 + b_1_2_1#169 - b_1_2_2#172 + 1000 hdu_1_2_2#292 <= 1000
 c385: - q_3#3 - b_1_2_1#169 + b_1_2_3#175 <= 0
 c386: x_2_3#166 - 2 hdu_1_2_3#293 <= 0
 c387: q_3#3 + b_1_2_1#169 - b_1_2_3#175 + 1000 hdu_1_2_3#293 <= 1000
 c388: - q_4#4 - b_1_2_2#172 + b_1_2_3#175 <= 0
 c389: x_2_4#170 - 2 hdu_1_2_4#294 <= 0
 c390: q_4#4 + b_1_2_2#172 - b_1_2_3#175 + 1000 hdu_1_2_4#294 <= 1000
 c391: - q_5#5 + ap_1_2#53 - b_1_2_2#172 <= 0
 c392: x_2_5#50 - 2 hdu_1_2_5#295 <= 0
 c393: q_5#5 - ap_1_2#53 + b_1_2_2#172 + 1000 hdu_1_2_5#295 <= 1000
 c394: - q_6#6 - b_1_2_3#175 <= 0
 c395: x_2_6#173 - 2 hdu_1_2_6#296 <= 0
 c396: q_6#6 + b_1_2_3#175 + 1000 hdu_1_2_6#296 <= 1000
 c397: - q_7#7 + ap_1_2#53 - b_1_2_3#175 <= 0.999999999999995
 c398: x_2_7#49 - 2 hdu_1_2_7#297 <= 0
 c399: q_7#7 - ap_1_2#53 + b_1_2_3#175 + 1000 hdu_1_2_7#297 <= 999
 c400: - q_8#8 + b_1_2_1#169 - b_1_2_4#179 <= 0
 c401: x_2_8#165 - 2 hdu_1_2_8#298 <= 0
 c402: q_8#8 - b_1_2_1#169 + b_1_2_4#179 + 1000 hdu_1_2_8#298 <= 1000
 c403: - q_9#9 - b_1_2_4#179 + b_1_2_5#181 <= 1
 c404: x_2_9#177 - 2 hdu_1_2_9#299 <= 0
 c405: q_9#9 + b_1_2_4#179 - b_1_2_5#181 + 1000 hdu_1_2_9#299 <= 999
 c406: - q_10#10 + b_1_2_4#179 <= 0
 c407: x_2_10#176 - 2 hdu_1_2_10#300 <= 0
 c408: q_10#10 - b_1_2_4#179 + 1000 hdu_1_2_10#300 <= 1000
 c409: - q_0#0 - b_2_0_0#186 + b_2_0_3#193 <= 0
 c410: x_0_0#184 - 2 hdu_2_0_0#301 <= 0
 c411: q_0#0 + b_2_0_0#186 - b_2_0_3#193 + 1000 hdu_2_0_0#301 <= 1000
 c412: - q_1#1 - b_2_0_0#186 + b_2_0_6#199 <= 0
 c413: x_0_1#183 - 2 hdu_2_0_1#302 <= 0
 c414: q_1#1 + b_2_0_0#186 - b_2_0_6#199 + 1000 hdu_2_0_1#302 <= 1000
 c415: - q_2#2 - an_2_0#63 + b_2_0_2#190 <= 0
 c416: x_0_2#61 - 2 hdu_2_0_2#303 <= 0
 c417: q_2#2 + an_2_0#63 - b_2_0_2#190 + 1000 hdu_2_0_2#303 <= 1000
 c418: - q_3#3 - an_2_0#63 + b_2_0_3#193 <= 0
 c419: x_0_3#60 - 2 hdu_2_0_3#304 <= 0
 c420: q_3#3 + an_2_0#63 - b_2_0_3#193 + 1000 hdu_2_0_3#304 <= 1000
 c421: - q_4#4 - b_2_0_2#190 + b_2_0_3#193 <= 0
 c422: x_0_4#188 - 2 hdu_2_0_4#305 <= 0
 c423: q_4#4 + b_2_0_2#190 - b_2_0_3#193 + 1000 hdu_2_0_4#305 <= 1000
 c424: - q_5#5 - b_2_0_2#190 + b_2_0_6#199 <= 0
 c425: x_0_5#187 - 2 hdu_2_0_5#306 <= 0
 c426: q_5#5 + b_2_0_2#190 - b_2_0_6#199 + 1000 hdu_2_0_5#306 <= 1000
 c427: - q_6#6 + b_2_0_0#186 - b_2_0_3#193 <= 0
 c428: x_0_6#182 - 2 hdu_2_0_6#307 <= 0
 c429: q_6#6 - b_2_0_0#186 + b_2_0_3#193 + 1000 hdu_2_0_6#307 <= 1000
 c430: - q_7#7 - b_2_0_3#193 + b_2_0_6#199 <= 0
 c431: x_0_7#191 - 2 hdu_2_0_7#308 <= 0
 c432: q_7#7 + b_2_0_3#193 - b_2_0_6#199 + 1000 hdu_2_0_7#308 <= 1000
 c433: - q_8#8 - b_2_0_4#197 <= 0
 c434: x_0_8#195 - 2 hdu_2_0_8#309 <= 0
 c435: q_8#8 + b_2_0_4#197 + 1000 hdu_2_0_8#309 <= 1000
 c436: - q_9#9 + ap_2_0#59 - b_2_0_4#197 <= 0
 c437: x_0_9#57 - 2 hdu_2_0_9#310 <= 0
 c438: q_9#9 - ap_2_0#59 + b_2_0_4#197 + 1000 hdu_2_0_9#310 <= 1000
 c439: - q_10#10 + b_2_0_4#197 - b_2_0_6#199 <= 0
 c440: x_0_10#194 - 2 hdu_2_0_10#311 <= 0
 c441: q_10#10 - b_2_0_4#197 + b_2_0_6#199 + 1000 hdu_2_0_10#311 <= 1000
 c442: - q_0#0 + ap_2_1#68 - b_2_1_0#203 <= 0
 c443: x_1_0#66 - 2 hdu_2_1_0#312 <= 0
 c444: q_0#0 - ap_2_1#68 + b_2_1_0#203 + 1000 hdu_2_1_0#312 <= 1000
 c445: - q_1#1 - b_2_1_0#203 <= 0
 c446: x_1_1#201 - 2 hdu_2_1_1#313 <= 0
 c447: q_1#1 + b_2_1_0#203 + 1000 hdu_2_1_1#313 <= 1000
 c448: - q_2#2 - b_2_1_1#207 + b_2_1_2#210 <= 0
 c449: x_1_2#205 - 2 hdu_2_1_2#314 <= 0
 c450: q_2#2 + b_2_1_1#207 - b_2_1_2#210 + 1000 hdu_2_1_2#314 <= 1000
 c451: - q_3#3 + ap_2_1#68 - b_2_1_1#207 <= 0
 c452: x_1_3#65 - 2 hdu_2_1_3#315 <= 0
 c453: q_3#3 - ap_2_1#68 + b_2_1_1#207 + 1000 hdu_2_1_3#315 <= 1000
 c454: - q_4#4 + ap_2_1#68 - b_2_1_2#210 <= 0
 c455: x_1_4#64 - 2 hdu_2_1_4#316 <= 0
 c456: q_4#4 - ap_2_1#68 + b_2_1_2#210 + 1000 hdu_2_1_4#316 <= 1000
 c457: - q_5#5 - b_2_1_2#210 <= 0
 c458: x_1_5#208 - 2 hdu_2_1_5#317 <= 0
 c459: q_5#5 + b_2_1_2#210 + 1000 hdu_2_1_5#317 <= 1000
 c460: - q_6#6 + b_2_1_0#203 <= 0
 c461: x_1_6#200 - 2 hdu_2_1_6#318 <= 0
 c462: q_6#6 - b_2_1_0#203 + 1000 hdu_2_1_6#318 <= 1000
 c463: - q_7#7 <= 0
 c464: - 2 hdu_2_1_7#319 + x_1_7#320 <= 0
 c465: q_7#7 + 1000 hdu_2_1_7#319 <= 1000
 c466: - q_8#8 + b_2_1_1#207 - b_2_1_4#213 <= 0
 c467: x_1_8#204 - 2 hdu_2_1_8#321 <= 0
 c468: q_8#8 - b_2_1_1#207 + b_2_1_4#213 + 1000 hdu_2_1_8#321 <= 1000
 c469: - q_9#9 - b_2_1_4#213 + b_2_1_5#215 <= 0
 c470: x_1_9#211 - 2 hdu_2_1_9#322 <= 0
 c471: q_9#9 + b_2_1_4#213 - b_2_1_5#215 + 1000 hdu_2_1_9#322 <= 1000
 c472: - q_10#10 - an_2_1#71 + b_2_1_4#213 <= 0
 c473: x_1_10#69 - 2 hdu_2_1_10#323 <= 0
 c474: q_10#10 + an_2_1#71 - b_2_1_4#213 + 1000 hdu_2_1_10#323 <= 1000
 c475: - q_0#0 - an_2_2#79 + b_2_2_3#226 <= 0
 c476: x_2_0#77 - 2 hdu_2_2_0#324 <= 0
 c477: q_0#0 + an_2_2#79 - b_2_2_3#226 + 1000 hdu_2_2_0#324 <= 1000
 c478: - q_1#1 + ap_2_2#76 - an_2_2#79 <= 0
 c479: x_2_1#74 - 2 hdu_2_2_1#325 <= 0
 c480: q_1#1 - ap_2_2#76 + an_2_2#79 + 1000 hdu_2_2_1#325 <= 1000
 c481: - q_2#2 - b_2_2_1#220 + b_2_2_2#223 <= 0
 c482: x_2_2#218 - 2 hdu_2_2_2#326 <= 0
 c483: q_2#2 + b_2_2_1#220 - b_2_2_2#223 + 1000 hdu_2_2_2#326 <= 1000
 c484: - q_3#3 - b_2_2_1#220 + b_2_2_3#226 <= 0
 c485: x_2_3#217 - 2 hdu_2_2_3#327 <= 0
 c486: q_3#3 + b_2_2_1#220 - b_2_2_3#226 + 1000 hdu_2_2_3#327 <= 1000
 c487: - q_4#4 - b_2_2_2#223 + b_2_2_3#226 <= 0
 c488: x_2_4#221 - 2 hdu_2_2_4#328 <= 0
 c489: q_4#4 + b_2_2_2#223 - b_2_2_3#226 + 1000 hdu_2_2_4#328 <= 1000
 c490: - q_5#5 + ap_2_2#76 - b_2_2_2#223 <= 0
 c491: x_2_5#73 - 2 hdu_2_2_5#329 <= 0
 c492: q_5#5 - ap_2_2#76 + b_2_2_2#223 + 1000 hdu_2_2_5#329 <= 1000
 c493: - q_6#6 - b_2_2_3#226 <= 0
 c494: x_2_6#224 - 2 hdu_2_2_6#330 <= 0
 c495: q_6#6 + b_2_2_3#226 + 1000 hdu_2_2_6#330 <= 1000
 c496: - q_7#7 + ap_2_2#76 - b_2_2_3#226 <= 1
 c497: x_2_7#72 - 2 hdu_2_2_7#331 <= 0
 c498: q_7#7 - ap_2_2#76 + b_2_2_3#226 + 1000 hdu_2_2_7#331 <= 999
 c499: - q_8#8 + b_2_2_1#220 - b_2_2_4#230 <= 0
 c500: x_2_8#216 - 2 hdu_2_2_8#332 <= 0
 c501: q_8#8 - b_2_2_1#220 + b_2_2_4#230 + 1000 hdu_2_2_8#332 <= 1000
 c502: - q_9#9 - b_2_2_4#230 + b_2_2_5#232 <= 1
 c503: x_2_9#228 - 2 hdu_2_2_9#333 <= 0
 c504: q_9#9 + b_2_2_4#230 - b_2_2_5#232 + 1000 hdu_2_2_9#333 <= 999
 c505: - q_10#10 + b_2_2_4#230 <= 0
 c506: x_2_10#227 - 2 hdu_2_2_10#334 <= 0
 c507: q_10#10 - b_2_2_4#230 + 1000 hdu_2_2_10#334 <= 1000
 c508: x_0_9#11 - ap_0_0#13 + an_0_0#17 + x_1_4#18 - ap_0_1#22 + x_1_10#23
       + an_0_1#25 + x_2_5#27 + x_2_1#28 - ap_0_2#30 + an_0_2#33 + x_0_1#81
       + x_0_5#85 + x_0_4#86 + x_0_10#92 + x_1_1#99 + x_1_5#106 + x_1_9#109
       + x_2_4#119 + x_2_10#125 + 2 x_2_9#126 + z#335 <= 0
 c509: x_0_9#34 - ap_1_0#36 + an_1_0#40 + x_1_4#41 - ap_1_1#45 + x_1_10#46
       + an_1_1#48 + x_2_7#49 + x_2_5#50 + x_2_1#51 - ap_1_2#53 + an_1_2#56
       + x_0_1#132 + x_0_5#136 + x_0_4#137 + x_0_10#143 + x_1_1#150 + x_1_5#157
       + x_1_9#160 + x_2_4#170 + x_2_10#176 + 2 x_2_9#177 + z#335 <= 0
 c510: x_0_9#57 - ap_2_0#59 + an_2_0#63 + x_1_4#64 - ap_2_1#68 + x_1_10#69
       + an_2_1#71 + x_2_7#72 + x_2_5#73 + x_2_1#74 - ap_2_2#76 + an_2_2#79
       + x_0_1#183 + x_0_5#187 + x_0_4#188 + x_0_10#194 + x_1_1#201 + x_1_5#208
       + x_1_9#211 + x_2_4#221 + x_2_10#227 + 2 x_2_9#228 + z#335 <= 0
Bounds
 0 <= x_0_9#11 <= 1
 0 <= hap_1_0_0#12 <= 1
 0 <= x_0_3#14 <= 1
 0 <= x_0_2#15 <= 1
 0 <= han_2_0_0#16 <= 1
 0 <= x_1_4#18 <= 1
 0 <= x_1_3#19 <= 1
 0 <= x_1_0#20 <= 1
 0 <= hap_1_0_1#21 <= 1
 0 <= x_1_10#23 <= 1
 0 <= han_2_0_1#24 <= 1
 0 <= x_2_7#26 <= 1
 0 <= x_2_5#27 <= 1
 0 <= x_2_1#28 <= 1
 0 <= hap_1_0_2#29 <= 1
 0 <= x_2_0#31 <= 1
 0 <= han_2_0_2#32 <= 1
 0 <= x_0_9#34 <= 1
 0 <= hap_1_1_0#35 <= 1
 0 <= x_0_3#37 <= 1
 0 <= x_0_2#38 <= 1
 0 <= han_2_1_0#39 <= 1
 0 <= x_1_4#41 <= 1
 0 <= x_1_3#42 <= 1
 0 <= x_1_0#43 <= 1
 0 <= hap_1_1_1#44 <= 1
 0 <= x_1_10#46 <= 1
 0 <= han_2_1_1#47 <= 1
 0 <= x_2_7#49 <= 1
 0 <= x_2_5#50 <= 1
 0 <= x_2_1#51 <= 1
 0 <= hap_1_1_2#52 <= 1
 0 <= x_2_0#54 <= 1
 0 <= han_2_1_2#55 <= 1
 0 <= x_0_9#57 <= 1
 0 <= hap_1_2_0#58 <= 1
 0 <= x_0_3#60 <= 1
 0 <= x_0_2#61 <= 1
 0 <= han_2_2_0#62 <= 1
 0 <= x_1_4#64 <= 1
 0 <= x_1_3#65 <= 1
 0 <= x_1_0#66 <= 1
 0 <= hap_1_2_1#67 <= 1
 0 <= x_1_10#69 <= 1
 0 <= han_2_2_1#70 <= 1
 0 <= x_2_7#72 <= 1
 0 <= x_2_5#73 <= 1
 0 <= x_2_1#74 <= 1
 0 <= hap_1_2_2#75 <= 1
 0 <= x_2_0#77 <= 1
 0 <= han_2_2_2#78 <= 1
 0 <= x_0_6#80 <= 1
 0 <= x_0_1#81 <= 1
 0 <= x_0_0#82 <= 1
 0 <= hb_0_0_0#83 <= 1
 0 <= x_0_5#85 <= 1
 0 <= x_0_4#86 <= 1
 0 <= hb_0_0_2#87 <= 1
 0 <= x_0_7#89 <= 1
 0 <= hb_0_0_3#90 <= 1
 0 <= x_0_10#92 <= 1
 0 <= x_0_8#93 <= 1
 0 <= hb_0_0_4#94 <= 1
 0 <= hb_0_0_6#96 <= 1
 0 <= x_1_6#98 <= 1
 0 <= x_1_1#99 <= 1
 0 <= hb_0_1_0#100 <= 1
 0 <= x_1_8#102 <= 1
 0 <= x_1_2#103 <= 1
 0 <= hb_0_1_1#104 <= 1
 0 <= x_1_5#106 <= 1
 0 <= hb_0_1_2#107 <= 1
 0 <= x_1_9#109 <= 1
 0 <= hb_0_1_4#110 <= 1
 0 <= hb_0_1_5#112 <= 1
 0 <= x_2_8#114 <= 1
 0 <= x_2_3#115 <= 1
 0 <= x_2_2#116 <= 1
 0 <= hb_0_2_1#117 <= 1
 0 <= x_2_4#119 <= 1
 0 <= hb_0_2_2#120 <= 1
 0 <= x_2_6#122 <= 1
 0 <= hb_0_2_3#123 <= 1
 0 <= x_2_10#125 <= 1
 0 <= x_2_9#126 <= 1
 0 <= hb_0_2_4#127 <= 1
 0 <= hb_0_2_5#129 <= 1
 0 <= x_0_6#131 <= 1
 0 <= x_0_1#132 <= 1
 0 <= x_0_0#133 <= 1
 0 <= hb_1_0_0#134 <= 1
 0 <= x_0_5#136 <= 1
 0 <= x_0_4#137 <= 1
 0 <= hb_1_0_2#138 <= 1
 0 <= x_0_7#140 <= 1
 0 <= hb_1_0_3#141 <= 1
 0 <= x_0_10#143 <= 1
 0 <= x_0_8#144 <= 1
 0 <= hb_1_0_4#145 <= 1
 0 <= hb_1_0_6#147 <= 1
 0 <= x_1_6#149 <= 1
 0 <= x_1_1#150 <= 1
 0 <= hb_1_1_0#151 <= 1
 0 <= x_1_8#153 <= 1
 0 <= x_1_2#154 <= 1
 0 <= hb_1_1_1#155 <= 1
 0 <= x_1_5#157 <= 1
 0 <= hb_1_1_2#158 <= 1
 0 <= x_1_9#160 <= 1
 0 <= hb_1_1_4#161 <= 1
 0 <= hb_1_1_5#163 <= 1
 0 <= x_2_8#165 <= 1
 0 <= x_2_3#166 <= 1
 0 <= x_2_2#167 <= 1
 0 <= hb_1_2_1#168 <= 1
 0 <= x_2_4#170 <= 1
 0 <= hb_1_2_2#171 <= 1
 0 <= x_2_6#173 <= 1
 0 <= hb_1_2_3#174 <= 1
 0 <= x_2_10#176 <= 1
 0 <= x_2_9#177 <= 1
 0 <= hb_1_2_4#178 <= 1
 0 <= hb_1_2_5#180 <= 1
 0 <= x_0_6#182 <= 1
 0 <= x_0_1#183 <= 1
 0 <= x_0_0#184 <= 1
 0 <= hb_2_0_0#185 <= 1
 0 <= x_0_5#187 <= 1
 0 <= x_0_4#188 <= 1
 0 <= hb_2_0_2#189 <= 1
 0 <= x_0_7#191 <= 1
 0 <= hb_2_0_3#192 <= 1
 0 <= x_0_10#194 <= 1
 0 <= x_0_8#195 <= 1
 0 <= hb_2_0_4#196 <= 1
 0 <= hb_2_0_6#198 <= 1
 0 <= x_1_6#200 <= 1
 0 <= x_1_1#201 <= 1
 0 <= hb_2_1_0#202 <= 1
 0 <= x_1_8#204 <= 1
 0 <= x_1_2#205 <= 1
 0 <= hb_2_1_1#206 <= 1
 0 <= x_1_5#208 <= 1
 0 <= hb_2_1_2#209 <= 1
 0 <= x_1_9#211 <= 1
 0 <= hb_2_1_4#212 <= 1
 0 <= hb_2_1_5#214 <= 1
 0 <= x_2_8#216 <= 1
 0 <= x_2_3#217 <= 1
 0 <= x_2_2#218 <= 1
 0 <= hb_2_2_1#219 <= 1
 0 <= x_2_4#221 <= 1
 0 <= hb_2_2_2#222 <= 1
 0 <= x_2_6#224 <= 1
 0 <= hb_2_2_3#225 <= 1
 0 <= x_2_10#227 <= 1
 0 <= x_2_9#228 <= 1
 0 <= hb_2_2_4#229 <= 1
 0 <= hb_2_2_5#231 <= 1
 0 <= hdu_0_0_0#233 <= 1
 0 <= hdu_0_0_1#234 <= 1
 0 <= hdu_0_0_2#235 <= 1
 0 <= hdu_0_0_3#236 <= 1
 0 <= hdu_0_0_4#237 <= 1
 0 <= hdu_0_0_5#238 <= 1
 0 <= hdu_0_0_6#239 <= 1
 0 <= hdu_0_0_7#240 <= 1
 0 <= hdu_0_0_8#241 <= 1
 0 <= hdu_0_0_9#242 <= 1
 0 <= hdu_0_0_10#243 <= 1
 0 <= hdu_0_1_0#244 <= 1
 0 <= hdu_0_1_1#245 <= 1
 0 <= hdu_0_1_2#246 <= 1
 0 <= hdu_0_1_3#247 <= 1
 0 <= hdu_0_1_4#248 <= 1
 0 <= hdu_0_1_5#249 <= 1
 0 <= hdu_0_1_6#250 <= 1
 0 <= hdu_0_1_7#251 <= 1
 0 <= x_1_7#252 <= 1
 0 <= hdu_0_1_8#253 <= 1
 0 <= hdu_0_1_9#254 <= 1
 0 <= hdu_0_1_10#255 <= 1
 0 <= hdu_0_2_0#256 <= 1
 0 <= hdu_0_2_1#257 <= 1
 0 <= hdu_0_2_2#258 <= 1
 0 <= hdu_0_2_3#259 <= 1
 0 <= hdu_0_2_4#260 <= 1
 0 <= hdu_0_2_5#261 <= 1
 0 <= hdu_0_2_6#262 <= 1
 0 <= hdu_0_2_7#263 <= 1
 0 <= hdu_0_2_8#264 <= 1
 0 <= hdu_0_2_9#265 <= 1
 0 <= hdu_0_2_10#266 <= 1
 0 <= hdu_1_0_0#267 <= 1
 0 <= hdu_1_0_1#268 <= 1
 0 <= hdu_1_0_2#269 <= 1
 0 <= hdu_1_0_3#270 <= 1
 0 <= hdu_1_0_4#271 <= 1
 0 <= hdu_1_0_5#272 <= 1
 0 <= hdu_1_0_6#273 <= 1
 0 <= hdu_1_0_7#274 <= 1
 0 <= hdu_1_0_8#275 <= 1
 0 <= hdu_1_0_9#276 <= 1
 0 <= hdu_1_0_10#277 <= 1
 0 <= hdu_1_1_0#278 <= 1
 0 <= hdu_1_1_1#279 <= 1
 0 <= hdu_1_1_2#280 <= 1
 0 <= hdu_1_1_3#281 <= 1
 0 <= hdu_1_1_4#282 <= 1
 0 <= hdu_1_1_5#283 <= 1
 0 <= hdu_1_1_6#284 <= 1
 0 <= hdu_1_1_7#285 <= 1
 0 <= x_1_7#286 <= 1
 0 <= hdu_1_1_8#287 <= 1
 0 <= hdu_1_1_9#288 <= 1
 0 <= hdu_1_1_10#289 <= 1
 0 <= hdu_1_2_0#290 <= 1
 0 <= hdu_1_2_1#291 <= 1
 0 <= hdu_1_2_2#292 <= 1
 0 <= hdu_1_2_3#293 <= 1
 0 <= hdu_1_2_4#294 <= 1
 0 <= hdu_1_2_5#295 <= 1
 0 <= hdu_1_2_6#296 <= 1
 0 <= hdu_1_2_7#297 <= 1
 0 <= hdu_1_2_8#298 <= 1
 0 <= hdu_1_2_9#299 <= 1
 0 <= hdu_1_2_10#300 <= 1
 0 <= hdu_2_0_0#301 <= 1
 0 <= hdu_2_0_1#302 <= 1
 0 <= hdu_2_0_2#303 <= 1
 0 <= hdu_2_0_3#304 <= 1
 0 <= hdu_2_0_4#305 <= 1
 0 <= hdu_2_0_5#306 <= 1
 0 <= hdu_2_0_6#307 <= 1
 0 <= hdu_2_0_7#308 <= 1
 0 <= hdu_2_0_8#309 <= 1
 0 <= hdu_2_0_9#310 <= 1
 0 <= hdu_2_0_10#311 <= 1
 0 <= hdu_2_1_0#312 <= 1
 0 <= hdu_2_1_1#313 <= 1
 0 <= hdu_2_1_2#314 <= 1
 0 <= hdu_2_1_3#315 <= 1
 0 <= hdu_2_1_4#316 <= 1
 0 <= hdu_2_1_5#317 <= 1
 0 <= hdu_2_1_6#318 <= 1
 0 <= hdu_2_1_7#319 <= 1
 0 <= x_1_7#320 <= 1
 0 <= hdu_2_1_8#321 <= 1
 0 <= hdu_2_1_9#322 <= 1
 0 <= hdu_2_1_10#323 <= 1
 0 <= hdu_2_2_0#324 <= 1
 0 <= hdu_2_2_1#325 <= 1
 0 <= hdu_2_2_2#326 <= 1
 0 <= hdu_2_2_3#327 <= 1
 0 <= hdu_2_2_4#328 <= 1
 0 <= hdu_2_2_5#329 <= 1
 0 <= hdu_2_2_6#330 <= 1
 0 <= hdu_2_2_7#331 <= 1
 0 <= hdu_2_2_8#332 <= 1
 0 <= hdu_2_2_9#333 <= 1
 0 <= hdu_2_2_10#334 <= 1
      z#335 Free
Binaries
 hap_1_0_0#12  han_2_0_0#16  hap_1_0_1#21  han_2_0_1#24  hap_1_0_2#29 
 han_2_0_2#32  hap_1_1_0#35  han_2_1_0#39  hap_1_1_1#44  han_2_1_1#47 
 hap_1_1_2#52  han_2_1_2#55  hap_1_2_0#58  han_2_2_0#62  hap_1_2_1#67 
 han_2_2_1#70  hap_1_2_2#75  han_2_2_2#78  hb_0_0_0#83  hb_0_0_2#87 
 hb_0_0_3#90  hb_0_0_4#94  hb_0_0_6#96  hb_0_1_0#100  hb_0_1_1#104 
 hb_0_1_2#107  hb_0_1_4#110  hb_0_1_5#112  hb_0_2_1#117  hb_0_2_2#120 
 hb_0_2_3#123  hb_0_2_4#127  hb_0_2_5#129  hb_1_0_0#134  hb_1_0_2#138 
 hb_1_0_3#141  hb_1_0_4#145  hb_1_0_6#147  hb_1_1_0#151  hb_1_1_1#155 
 hb_1_1_2#158  hb_1_1_4#161  hb_1_1_5#163  hb_1_2_1#168  hb_1_2_2#171 
 hb_1_2_3#174  hb_1_2_4#178  hb_1_2_5#180  hb_2_0_0#185  hb_2_0_2#189 
 hb_2_0_3#192  hb_2_0_4#196  hb_2_0_6#198  hb_2_1_0#202  hb_2_1_1#206 
 hb_2_1_2#209  hb_2_1_4#212  hb_2_1_5#214  hb_2_2_1#219  hb_2_2_2#222 
 hb_2_2_3#225  hb_2_2_4#229  hb_2_2_5#231  hdu_0_0_0#233  hdu_0_0_1#234 
 hdu_0_0_2#235  hdu_0_0_3#236  hdu_0_0_4#237  hdu_0_0_5#238  hdu_0_0_6#239 
 hdu_0_0_7#240  hdu_0_0_8#241  hdu_0_0_9#242  hdu_0_0_10#243  hdu_0_1_0#244 
 hdu_0_1_1#245  hdu_0_1_2#246  hdu_0_1_3#247  hdu_0_1_4#248  hdu_0_1_5#249 
 hdu_0_1_6#250  hdu_0_1_7#251  hdu_0_1_8#253  hdu_0_1_9#254  hdu_0_1_10#255 
 hdu_0_2_0#256  hdu_0_2_1#257  hdu_0_2_2#258  hdu_0_2_3#259  hdu_0_2_4#260 
 hdu_0_2_5#261  hdu_0_2_6#262  hdu_0_2_7#263  hdu_0_2_8#264  hdu_0_2_9#265 
 hdu_0_2_10#266  hdu_1_0_0#267  hdu_1_0_1#268  hdu_1_0_2#269  hdu_1_0_3#270 
 hdu_1_0_4#271  hdu_1_0_5#272  hdu_1_0_6#273  hdu_1_0_7#274  hdu_1_0_8#275 
 hdu_1_0_9#276  hdu_1_0_10#277  hdu_1_1_0#278  hdu_1_1_1#279  hdu_1_1_2#280 
 hdu_1_1_3#281  hdu_1_1_4#282  hdu_1_1_5#283  hdu_1_1_6#284  hdu_1_1_7#285 
 hdu_1_1_8#287  hdu_1_1_9#288  hdu_1_1_10#289  hdu_1_2_0#290  hdu_1_2_1#291 
 hdu_1_2_2#292  hdu_1_2_3#293  hdu_1_2_4#294  hdu_1_2_5#295  hdu_1_2_6#296 
 hdu_1_2_7#297  hdu_1_2_8#298  hdu_1_2_9#299  hdu_1_2_10#300  hdu_2_0_0#301 
 hdu_2_0_1#302  hdu_2_0_2#303  hdu_2_0_3#304  hdu_2_0_4#305  hdu_2_0_5#306 
 hdu_2_0_6#307  hdu_2_0_7#308  hdu_2_0_8#309  hdu_2_0_9#310  hdu_2_0_10#311 
 hdu_2_1_0#312  hdu_2_1_1#313  hdu_2_1_2#314  hdu_2_1_3#315  hdu_2_1_4#316 
 hdu_2_1_5#317  hdu_2_1_6#318  hdu_2_1_7#319  hdu_2_1_8#321  hdu_2_1_9#322 
 hdu_2_1_10#323  hdu_2_2_0#324  hdu_2_2_1#325  hdu_2_2_2#326  hdu_2_2_3#327 
 hdu_2_2_4#328  hdu_2_2_5#329  hdu_2_2_6#330  hdu_2_2_7#331  hdu_2_2_8#332 
 hdu_2_2_9#333  hdu_2_2_10#334 
End
